# Solution for model Model5
# Objective value = 106
y[0,0,1] 1
y[0,1,1] 1
y[1,0,1] 1
y[1,1,1] 1
y[2,0,1] 1
y[2,1,1] 1
x[0,0,0,0] 0
x[0,0,0,1] 1
x[0,0,1,0] 0
x[0,0,1,1] 0
x[0,0,2,0] 0
x[0,0,2,1] 0
x[0,1,0,0] 0
x[0,1,0,1] 0
x[0,1,1,0] 0
x[0,1,1,1] 0
x[0,1,2,0] 0
x[0,1,2,1] 0
x[1,0,0,0] 0
x[1,0,0,1] 0
x[1,0,1,0] 0
x[1,0,1,1] 1
x[1,0,2,0] 0
x[1,0,2,1] 0
x[1,1,0,0] 0
x[1,1,0,1] 0
x[1,1,1,0] 0
x[1,1,1,1] 0
x[1,1,2,0] 0
x[1,1,2,1] 0
x[2,0,0,0] 0
x[2,0,0,1] 0
x[2,0,1,0] 0
x[2,0,1,1] 0
x[2,0,2,0] 0
x[2,0,2,1] 1
x[2,1,0,0] 0
x[2,1,0,1] 0
x[2,1,1,0] 0
x[2,1,1,1] 0
x[2,1,2,0] 0
x[2,1,2,1] 0
s[0,0,1] 13
s[0,1,1] 1
s[1,0,1] 27
s[1,1,1] 20
s[2,0,1] 57
s[2,1,1] 43
Z_FO 106
